sat
(
  (define-fun C2_VM13 () Int
    1)
  (define-fun VM15Type () Int
    225)
  (define-fun C3_VM11 () Int
    0)
  (define-fun C4_VM14 () Int
    0)
  (define-fun C1_VM12 () Int
    0)
  (define-fun StorageProv11 () Int
    2000)
  (define-fun MemProv12 () Int
    3750)
  (define-fun VM10Type () Int
    225)
  (define-fun C3_VM8 () Int
    0)
  (define-fun MemProv7 () Int
    7500)
  (define-fun StorageProv14 () Int
    2000)
  (define-fun C1_VM13 () Int
    0)
  (define-fun C5_VM15 () Int
    0)
  (define-fun C3_VM5 () Int
    0)
  (define-fun PriceProv5 () Int
    126)
  (define-fun PriceProv15 () Int
    126)
  (define-fun C2_VM6 () Int
    0)
  (define-fun C4_VM6 () Int
    0)
  (define-fun C1_VM8 () Int
    0)
  (define-fun C3_VM7 () Int
    1)
  (define-fun PriceProv9 () Int
    126)
  (define-fun C5_VM8 () Int
    1)
  (define-fun C2_VM2 () Int
    0)
  (define-fun C5_VM11 () Int
    0)
  (define-fun MemProv13 () Int
    3750)
  (define-fun C3_VM4 () Int
    0)
  (define-fun ProcProv8 () Int
    4)
  (define-fun C3_VM2 () Int
    0)
  (define-fun StorageProv10 () Int
    2000)
  (define-fun C3_VM3 () Int
    0)
  (define-fun VM8Type () Int
    182)
  (define-fun C1_VM5 () Int
    1)
  (define-fun PriceProv7 () Int
    210)
  (define-fun PriceProv4 () Int
    126)
  (define-fun C4_VM3 () Int
    0)
  (define-fun PriceProv12 () Int
    126)
  (define-fun ProcProv7 () Int
    4)
  (define-fun C4_VM8 () Int
    0)
  (define-fun VM2Type () Int
    225)
  (define-fun C5_VM5 () Int
    0)
  (define-fun C4_VM5 () Int
    0)
  (define-fun ProcProv4 () Int
    2)
  (define-fun C2_VM4 () Int
    0)
  (define-fun ProcProv2 () Int
    2)
  (define-fun C3_VM12 () Int
    0)
  (define-fun C1_VM10 () Int
    0)
  (define-fun PriceProv1 () Int
    126)
  (define-fun StorageProv8 () Int
    2000)
  (define-fun VM14Type () Int
    225)
  (define-fun VM11Type () Int
    225)
  (define-fun C1_VM14 () Int
    0)
  (define-fun MemProv3 () Int
    3750)
  (define-fun ProcProv13 () Int
    2)
  (define-fun ProcProv1 () Int
    2)
  (define-fun C4_VM7 () Int
    0)
  (define-fun PriceProv2 () Int
    126)
  (define-fun MemProv15 () Int
    3750)
  (define-fun ProcProv3 () Int
    2)
  (define-fun C4_VM15 () Int
    0)
  (define-fun C1_VM3 () Int
    1)
  (define-fun StorageProv9 () Int
    2000)
  (define-fun C2_VM10 () Int
    1)
  (define-fun C3_VM1 () Int
    0)
  (define-fun StorageProv4 () Int
    2000)
  (define-fun VM6Type () Int
    182)
  (define-fun C4_VM4 () Int
    0)
  (define-fun ProcProv11 () Int
    2)
  (define-fun MemProv2 () Int
    3750)
  (define-fun C2_VM9 () Int
    0)
  (define-fun StorageProv2 () Int
    2000)
  (define-fun C4_VM2 () Int
    0)
  (define-fun StorageProv13 () Int
    2000)
  (define-fun C4_VM12 () Int
    0)
  (define-fun C2_VM15 () Int
    0)
  (define-fun C5_VM7 () Int
    0)
  (define-fun VM12Type () Int
    225)
  (define-fun StorageProv12 () Int
    2000)
  (define-fun VM7Type () Int
    182)
  (define-fun C1_VM6 () Int
    0)
  (define-fun MemProv6 () Int
    7500)
  (define-fun C1_VM4 () Int
    1)
  (define-fun C3_VM15 () Int
    0)
  (define-fun C5_VM10 () Int
    0)
  (define-fun C1_VM9 () Int
    1)
  (define-fun PriceProv10 () Int
    126)
  (define-fun PriceProv3 () Int
    126)
  (define-fun MemProv8 () Int
    7500)
  (define-fun MemProv5 () Int
    3750)
  (define-fun C4_VM9 () Int
    0)
  (define-fun C1_VM7 () Int
    0)
  (define-fun VM4Type () Int
    225)
  (define-fun C2_VM12 () Int
    1)
  (define-fun C2_VM8 () Int
    0)
  (define-fun C2_VM11 () Int
    1)
  (define-fun StorageProv1 () Int
    2000)
  (define-fun StorageProv6 () Int
    2000)
  (define-fun PriceProv14 () Int
    126)
  (define-fun ProcProv9 () Int
    2)
  (define-fun C4_VM11 () Int
    0)
  (define-fun StorageProv7 () Int
    2000)
  (define-fun VM5Type () Int
    225)
  (define-fun ProcProv5 () Int
    2)
  (define-fun C2_VM5 () Int
    0)
  (define-fun C2_VM3 () Int
    0)
  (define-fun StorageProv5 () Int
    2000)
  (define-fun MemProv11 () Int
    3750)
  (define-fun C5_VM9 () Int
    0)
  (define-fun ProcProv12 () Int
    2)
  (define-fun VM13Type () Int
    225)
  (define-fun C3_VM6 () Int
    0)
  (define-fun C5_VM12 () Int
    0)
  (define-fun C4_VM13 () Int
    0)
  (define-fun MemProv10 () Int
    3750)
  (define-fun C5_VM1 () Int
    0)
  (define-fun VM3Type () Int
    225)
  (define-fun MemProv1 () Int
    3750)
  (define-fun C4_VM10 () Int
    0)
  (define-fun C4_VM1 () Int
    0)
  (define-fun StorageProv15 () Int
    2000)
  (define-fun C1_VM2 () Int
    1)
  (define-fun C3_VM9 () Int
    0)
  (define-fun MemProv4 () Int
    3750)
  (define-fun C3_VM10 () Int
    0)
  (define-fun ProcProv10 () Int
    2)
  (define-fun ProcProv14 () Int
    2)
  (define-fun PriceProv13 () Int
    126)
  (define-fun C5_VM13 () Int
    0)
  (define-fun C2_VM1 () Int
    0)
  (define-fun ProcProv6 () Int
    4)
  (define-fun PriceProv11 () Int
    126)
  (define-fun C5_VM2 () Int
    0)
  (define-fun C1_VM11 () Int
    0)
  (define-fun MemProv9 () Int
    3750)
  (define-fun C2_VM14 () Int
    1)
  (define-fun C5_VM4 () Int
    0)
  (define-fun C3_VM14 () Int
    0)
  (define-fun PriceProv8 () Int
    210)
  (define-fun C1_VM1 () Int
    1)
  (define-fun C5_VM6 () Int
    1)
  (define-fun C5_VM14 () Int
    0)
  (define-fun C2_VM7 () Int
    0)
  (define-fun ProcProv15 () Int
    2)
  (define-fun C3_VM13 () Int
    0)
  (define-fun VM1Type () Int
    225)
  (define-fun C5_VM3 () Int
    0)
  (define-fun PriceProv6 () Int
    210)
  (define-fun C1_VM15 () Int
    1)
  (define-fun StorageProv3 () Int
    2000)
  (define-fun VM9Type () Int
    225)
  (define-fun MemProv14 () Int
    3750)
)
(objectives
 ( 60)
 ((+ 0
   PriceProv1
   PriceProv2
   PriceProv3
   PriceProv4
   PriceProv5
   PriceProv6
   PriceProv7
   PriceProv8
   PriceProv9
   PriceProv10
   PriceProv11
   PriceProv12
   PriceProv13
   PriceProv14
   PriceProv15) 2142)
)
(:added-eqs                   580895
 :arith-eq-adapter            311362
 :arith-bound-propagations-lp 1618
 :arith-conflicts             97
 :arith-diseq                 434494
 :arith-fixed-eqs             3597
 :arith-lower                 465184
 :arith-make-feasible         197285
 :arith-max-columns           459
 :arith-max-rows              47
 :arith-upper                 444976
 :binary-propagations         1260393
 :bv-bit2core                 5456
 :bv-dynamic-diseqs           488246
 :bv->core-eq                 2513
 :conflicts                   6403
 :decisions                   330438
 :del-clause                  621384
 :final-checks                54
 :max-memory                  90.84
 :maxsat-cores                15
 :memory                      87.54
 :minimized-lits              11930
 :mk-bool-var                 627455
 :mk-clause                   626218
 :mk-clause-binary            21080
 :num-allocs                  10519142382.00
 :num-checks                  78
 :pb-conflicts                1302
 :pb-predicates               7
 :pb-propagations             17699
 :pb-resolves                 15
 :propagations                1404483
 :restarts                    42
 :rlimit-count                21761372
 :time                        3.71
 :total-time                  3.73)
